set VV := 0 1 2 3 4 5 6 ;
set VS := 0 1 2 3 4 5 6 7 8 9 10 11 12 13 14 15 16 17 18 ;
param cv := 
0 13
1 22
2 11
3 21
4 11
5 19
6 13
;
param cs := 
0 22
1 40
2 22
3 31
4 27
5 32
6 25
7 26
8 39
9 22
10 31
11 21
12 32
13 34
14 24
15 21
16 37
17 27
18 35
;
param bv:	 0 1 2 3 4 5 6 := 
		0 0 0 0 18 0 0 13 
		1 0 0 21 0 0 0 12 
		2 0 0 0 0 0 0 0 
		3 0 0 0 0 16 0 0 
		4 0 0 0 0 0 22 0 
		5 0 0 0 0 0 0 0 
		6 0 0 0 0 0 0 0 
;
param bs:	 0 1 2 3 4 5 6 7 8 9 10 11 12 13 14 15 16 17 18 := 
		0 0 0 39 25 0 0 0 0 0 0 0 25 0 0 0 38 0 0 0 
		1 0 0 35 0 35 0 32 0 0 0 0 0 0 0 33 20 0 0 22 
		2 39 35 0 0 0 0 0 0 0 0 0 0 0 20 25 0 0 0 0 
		3 25 0 0 0 0 0 0 0 0 23 0 0 0 0 20 0 0 0 0 
		4 0 35 0 0 0 0 39 0 0 0 32 0 0 0 0 0 0 20 0 
		5 0 0 0 0 0 0 23 0 0 31 37 0 30 0 0 0 0 26 0 
		6 0 32 0 0 39 23 0 31 0 0 0 0 0 0 0 0 0 0 0 
		7 0 0 0 0 0 0 31 0 0 0 29 0 0 40 0 32 0 0 21 
		8 0 0 0 0 0 0 0 0 0 0 0 0 0 0 0 0 40 0 0 
		9 0 0 0 23 0 31 0 0 0 0 0 0 0 35 0 0 0 0 0 
		10 0 0 0 0 32 37 0 29 0 0 0 0 0 0 0 0 0 0 0 
		11 25 0 0 0 0 0 0 0 0 0 0 0 0 0 0 0 0 0 0 
		12 0 0 0 0 0 30 0 0 0 0 0 0 0 0 0 0 0 0 0 
		13 0 0 20 0 0 0 0 40 0 35 0 0 0 0 0 0 0 0 0 
		14 0 33 25 20 0 0 0 0 0 0 0 0 0 0 0 0 0 0 0 
		15 38 20 0 0 0 0 0 32 0 0 0 0 0 0 0 0 0 23 0 
		16 0 0 0 0 0 0 0 0 40 0 0 0 0 0 0 0 0 36 0 
		17 0 0 0 0 20 26 0 0 0 0 0 0 0 0 0 23 36 0 0 
		18 0 22 0 0 0 0 0 21 0 0 0 0 0 0 0 0 0 0 0 
;
